
  14    0


   0   8 2 3 5 9 10 11 12 13 
   1   2 8 6 
   2   1 4 
  10   1 7 
  10   1 6 
   5   1 14
   5   1 14
  10   1 14
   4   1 14
   6   1 14
   2   1 14
   5   1 14
   4   1 14
   0   0 
